sat-intances/5.param.solution
language ESSENCE' 1.0
letting actionFrom be [0, 2, 0, 3, 2, 2, 3, 2, 3, 0, 2, 3, 3, 2]
letting actionTo be [2, 3, 2, 2, 3, 1, 2, 1, 2, 2, 3, 2, 2, 1]
letting actionTypes be [1, 4, 1, 5, 4, 2, 5, 2, 5, 1, 4, 5, 5, 2]
letting pointers be [[0, 1, 1, 2, 2, 2, 2, 2, 2, 2, 3, 3, 3, 3, 3;int(0..14)], 
[0, 0, 0, 0, 0, 0, 1, 1, 2, 2, 2, 2, 2, 2, 3;int(0..14)];int(0..1)]
letting statePlaces be [[-1, 4, 4, 8, 12, 12, 12, 24, 24, 36, 5, 5, 10, 15, 15;int(0..14)], 
[-1, -1, 4, 4, 4, 12, 12, 12, 12, 12, 12, 5, 5, 5, 5;int(0..14)];int(2..3)]
